letting n =  10
letting blocks =  [[1, 1], [1, 3], [1, 5], [1, 6], [1, 7], [1, 9], [2, 1], [2, 3], [2, 4], [2, 6], [2, 8], [2, 9], [3, 1], [3, 2], [3, 5], [3, 6], [3, 7], [3, 9], [4, 2], [4, 3], [4, 4], [4, 5], [4, 6], [4, 8], [5, 1], [5, 6], [5, 7], [5, 8], [5, 9], [5, 10], [6, 2], [6, 3], [6, 4], [6, 7], [6, 9], [6, 10], [7, 2], [7, 4], [7, 5], [7, 8], [7, 9], [8, 1], [8, 2], [8, 4], [8, 7], [9, 3], [9, 5], [9, 6], [9, 8], [9, 10], [10, 1], [10, 2], [10, 3], [10, 4], [10, 7], [10, 8]]
